mapa = [|
         9,9,9,9,9,9,9,9,9,9,9,9,9|
         9,9,9,9,9,8,8,8,9,9,9,9,9|
         9,8,8,8,9,8,1,8,9,8,8,8,9|
         9,8,1,8,8,8,8,8,8,8,1,8,9|
         9,8,8,8,9,8,8,8,9,8,8,8,9|
         9,9,9,9,9,8,8,8,9,9,9,9,9|
         9,9,9,9,9,9,9,9,9,9,9,9,9|];
dimx = 7;
dimy = 13;
filav = 5;
colav = 7;
